n = 30
Q1 = [0 49 49 47 47 40 41 27 17 22 48 11 18 31 9 43 9 21 36 45 20 17 33 36 27 11 35 47 28 37; 0 0 42 30 43 32 27 36 46 23 9 33 45 6 36 45 10 35 8 41 39 12 32 17 22 37 42 22 20 31; 0 0 0 8 24 6 35 23 23 8 44 9 32 35 35 48 37 15 13 41 11 5 34 31 43 31 30 12 49 28; 0 0 0 0 43 30 40 16 44 47 8 31 12 38 13 15 9 26 23 28 15 15 17 39 30 50 45 11 21 24; 0 0 0 0 0 50 18 35 33 7 29 13 32 29 37 31 28 21 6 10 8 14 18 31 49 40 42 15 38 47; 0 0 0 0 0 0 11 42 30 50 16 21 36 40 10 45 40 36 23 14 38 36 45 14 31 8 38 33 6 10; 0 0 0 0 0 0 0 34 34 45 49 49 21 9 34 15 30 37 43 13 35 6 10 14 7 50 32 11 47 19; 0 0 0 0 0 0 0 0 48 45 23 6 14 12 43 46 44 13 46 46 38 12 42 50 46 41 38 36 49 5; 0 0 0 0 0 0 0 0 0 36 29 27 10 42 40 36 19 10 44 15 36 22 21 32 39 30 14 36 17 43; 0 0 0 0 0 0 0 0 0 0 50 29 20 17 41 24 8 19 33 41 28 26 23 26 35 34 48 10 43 6; 0 0 0 0 0 0 0 0 0 0 0 33 22 48 45 7 46 49 40 23 8 21 36 22 17 42 45 39 38 41; 0 0 0 0 0 0 0 0 0 0 0 0 47 50 46 47 13 32 19 43 33 31 42 38 12 7 34 41 12 33; 0 0 0 0 0 0 0 0 0 0 0 0 0 10 24 17 36 38 39 17 8 23 34 9 11 36 37 43 32 28; 0 0 0 0 0 0 0 0 0 0 0 0 0 0 22 20 44 12 17 35 45 46 21 25 25 16 18 12 14 15; 0 0 0 0 0 0 0 0 0 0 0 0 0 0 0 22 20 47 26 14 26 10 43 36 44 8 33 48 15 48; 0 0 0 0 0 0 0 0 0 0 0 0 0 0 0 0 19 33 26 9 7 34 46 43 24 35 45 26 38 47; 0 0 0 0 0 0 0 0 0 0 0 0 0 0 0 0 0 13 5 14 9 28 43 34 7 45 23 42 36 16; 0 0 0 0 0 0 0 0 0 0 0 0 0 0 0 0 0 0 37 6 47 28 7 5 42 27 15 44 50 6; 0 0 0 0 0 0 0 0 0 0 0 0 0 0 0 0 0 0 0 28 42 28 14 37 36 18 47 33 7 20; 0 0 0 0 0 0 0 0 0 0 0 0 0 0 0 0 0 0 0 0 29 20 25 50 50 30 25 37 24 18; 0 0 0 0 0 0 0 0 0 0 0 0 0 0 0 0 0 0 0 0 0 5 45 47 47 29 18 20 6 43; 0 0 0 0 0 0 0 0 0 0 0 0 0 0 0 0 0 0 0 0 0 0 45 21 31 6 15 41 41 16; 0 0 0 0 0 0 0 0 0 0 0 0 0 0 0 0 0 0 0 0 0 0 0 49 35 43 24 12 10 36; 0 0 0 0 0 0 0 0 0 0 0 0 0 0 0 0 0 0 0 0 0 0 0 0 46 22 22 47 47 35; 0 0 0 0 0 0 0 0 0 0 0 0 0 0 0 0 0 0 0 0 0 0 0 0 0 37 33 35 26 44; 0 0 0 0 0 0 0 0 0 0 0 0 0 0 0 0 0 0 0 0 0 0 0 0 0 0 24 20 5 17; 0 0 0 0 0 0 0 0 0 0 0 0 0 0 0 0 0 0 0 0 0 0 0 0 0 0 0 5 5 29; 0 0 0 0 0 0 0 0 0 0 0 0 0 0 0 0 0 0 0 0 0 0 0 0 0 0 0 0 45 44; 0 0 0 0 0 0 0 0 0 0 0 0 0 0 0 0 0 0 0 0 0 0 0 0 0 0 0 0 0 42; 0 0 0 0 0 0 0 0 0 0 0 0 0 0 0 0 0 0 0 0 0 0 0 0 0 0 0 0 0 0]
Q2 = [0.0 0.0 0.0 0.0 1.0 0.0 5.0 4.0 34.0 30.0 2.0 42.0 49.0 19.0 50.0 7.0 47.0 35.0 11.0 2.0 50.0 34.0 12.0 13.0 8.0 42.0 15.0 3.0 0.0 4.0; 0.0 0.0 7.0 17.0 4.0 5.0 23.0 2.0 3.0 38.0 41.0 17.0 0.0 50.0 2.0 3.0 47.0 13.0 47.0 3.0 2.0 38.0 16.0 42.0 29.0 4.0 8.0 44.0 35.0 9.0; 0.0 0.0 0.0 46.0 41.0 44.0 7.0 33.0 36.0 47.0 3.0 49.0 6.0 12.0 9.0 0.0 4.0 35.0 37.0 7.0 39.0 49.0 11.0 1.0 3.0 3.0 12.0 41.0 1.0 4.0; 0.0 0.0 0.0 0.0 1.0 4.0 4.0 50.0 5.0 2.0 44.0 15.0 49.0 6.0 50.0 39.0 46.0 6.0 29.0 19.0 47.0 42.0 35.0 9.0 18.0 0.0 5.0 42.0 45.0 41.0; 0.0 0.0 0.0 0.0 0.0 0.0 40.0 2.0 9.0 50.0 7.0 45.0 16.0 6.0 2.0 7.0 5.0 35.0 48.0 47.0 50.0 48.0 45.0 8.0 0.0 6.0 5.0 50.0 2.0 1.0; 0.0 0.0 0.0 0.0 0.0 0.0 50.0 8.0 15.0 0.0 40.0 50.0 3.0 10.0 40.0 5.0 3.0 6.0 27.0 47.0 11.0 10.0 1.0 36.0 9.0 42.0 10.0 0.0 45.0 43.0; 0.0 0.0 0.0 0.0 0.0 0.0 0.0 16.0 5.0 3.0 1.0 1.0 37.0 49.0 0.0 35.0 7.0 9.0 3.0 49.0 4.0 48.0 45.0 36.0 43.0 0.0 6.0 39.0 2.0 34.0; 0.0 0.0 0.0 0.0 0.0 0.0 0.0 0.0 0.0 1.0 27.0 48.0 46.0 47.0 4.0 3.0 3.0 47.0 4.0 2.0 11.0 43.0 1.0 0.0 2.0 8.0 3.0 6.0 1.0 47.0; 0.0 0.0 0.0 0.0 0.0 0.0 0.0 0.0 0.0 0.0 5.0 10.0 48.0 4.0 6.0 7.0 41.0 44.0 6.0 43.0 9.0 50.0 47.0 5.0 10.0 10.0 37.0 12.0 50.0 5.0; 0.0 0.0 0.0 0.0 0.0 0.0 0.0 0.0 0.0 0.0 0.0 18.0 46.0 50.0 7.0 47.0 49.0 47.0 16.0 4.0 21.0 11.0 33.0 13.0 15.0 4.0 1.0 47.0 6.0 50.0; 0.0 0.0 0.0 0.0 0.0 0.0 0.0 0.0 0.0 0.0 0.0 16.0 40.0 2.0 2.0 49.0 0.0 0.0 7.0 32.0 48.0 29.0 4.0 35.0 49.0 3.0 2.0 5.0 7.0 0.0; 0.0 0.0 0.0 0.0 0.0 0.0 0.0 0.0 0.0 0.0 0.0 0.0 2.0 0.0 1.0 0.0 47.0 14.0 34.0 7.0 3.0 14.0 0.0 11.0 43.0 46.0 0.0 7.0 48.0 17.0; 0.0 0.0 0.0 0.0 0.0 0.0 0.0 0.0 0.0 0.0 0.0 0.0 0.0 41.0 33.0 49.0 4.0 12.0 2.0 43.0 50.0 39.0 3.0 48.0 47.0 7.0 5.0 7.0 12.0 14.0; 0.0 0.0 0.0 0.0 0.0 0.0 0.0 0.0 0.0 0.0 0.0 0.0 0.0 0.0 35.0 50.0 1.0 46.0 49.0 0.0 0.0 0.0 29.0 17.0 7.0 47.0 34.0 44.0 46.0 46.0; 0.0 0.0 0.0 0.0 0.0 0.0 0.0 0.0 0.0 0.0 0.0 0.0 0.0 0.0 0.0 41.0 40.0 0.0 0.0 47.0 6.0 48.0 4.0 14.0 3.0 50.0 12.0 2.0 42.0 2.0; 0.0 0.0 0.0 0.0 0.0 0.0 0.0 0.0 0.0 0.0 0.0 0.0 0.0 0.0 0.0 0.0 50.0 0.0 7.0 46.0 50.0 5.0 2.0 1.0 45.0 2.0 3.0 5.0 11.0 2.0; 0.0 0.0 0.0 0.0 0.0 0.0 0.0 0.0 0.0 0.0 0.0 0.0 0.0 0.0 0.0 0.0 0.0 42.0 49.0 45.0 44.0 13.0 6.0 1.0 45.0 2.0 45.0 5.0 4.0 38.0; 0.0 0.0 0.0 0.0 0.0 0.0 0.0 0.0 0.0 0.0 0.0 0.0 0.0 0.0 0.0 0.0 0.0 0.0 13.0 48.0 0.0 17.0 47.0 50.0 4.0 9.0 45.0 4.0 0.0 44.0; 0.0 0.0 0.0 0.0 0.0 0.0 0.0 0.0 0.0 0.0 0.0 0.0 0.0 0.0 0.0 0.0 0.0 0.0 0.0 17.0 6.0 22.0 47.0 3.0 14.0 32.0 3.0 12.0 44.0 39.0; 0.0 0.0 0.0 0.0 0.0 0.0 0.0 0.0 0.0 0.0 0.0 0.0 0.0 0.0 0.0 0.0 0.0 0.0 0.0 0.0 9.0 32.0 24.0 0.0 0.0 1.0 22.0 13.0 26.0 40.0; 0.0 0.0 0.0 0.0 0.0 0.0 0.0 0.0 0.0 0.0 0.0 0.0 0.0 0.0 0.0 0.0 0.0 0.0 0.0 0.0 0.0 45.0 3.0 0.0 2.0 0.0 42.0 46.0 49.0 1.0; 0.0 0.0 0.0 0.0 0.0 0.0 0.0 0.0 0.0 0.0 0.0 0.0 0.0 0.0 0.0 0.0 0.0 0.0 0.0 0.0 0.0 0.0 4.0 48.0 2.0 50.0 37.0 4.0 8.0 45.0; 0.0 0.0 0.0 0.0 0.0 0.0 0.0 0.0 0.0 0.0 0.0 0.0 0.0 0.0 0.0 0.0 0.0 0.0 0.0 0.0 0.0 0.0 0.0 0.0 11.0 2.0 47.0 47.0 43.0 1.0; 0.0 0.0 0.0 0.0 0.0 0.0 0.0 0.0 0.0 0.0 0.0 0.0 0.0 0.0 0.0 0.0 0.0 0.0 0.0 0.0 0.0 0.0 0.0 0.0 3.0 28.0 29.0 0.0 1.0 5.0; 0.0 0.0 0.0 0.0 0.0 0.0 0.0 0.0 0.0 0.0 0.0 0.0 0.0 0.0 0.0 0.0 0.0 0.0 0.0 0.0 0.0 0.0 0.0 0.0 0.0 2.0 14.0 12.0 16.0 3.0; 0.0 0.0 0.0 0.0 0.0 0.0 0.0 0.0 0.0 0.0 0.0 0.0 0.0 0.0 0.0 0.0 0.0 0.0 0.0 0.0 0.0 0.0 0.0 0.0 0.0 0.0 33.0 30.0 48.0 36.0; 0.0 0.0 0.0 0.0 0.0 0.0 0.0 0.0 0.0 0.0 0.0 0.0 0.0 0.0 0.0 0.0 0.0 0.0 0.0 0.0 0.0 0.0 0.0 0.0 0.0 0.0 0.0 47.0 50.0 6.0; 0.0 0.0 0.0 0.0 0.0 0.0 0.0 0.0 0.0 0.0 0.0 0.0 0.0 0.0 0.0 0.0 0.0 0.0 0.0 0.0 0.0 0.0 0.0 0.0 0.0 0.0 0.0 0.0 2.0 0.0; 0.0 0.0 0.0 0.0 0.0 0.0 0.0 0.0 0.0 0.0 0.0 0.0 0.0 0.0 0.0 0.0 0.0 0.0 0.0 0.0 0.0 0.0 0.0 0.0 0.0 0.0 0.0 0.0 0.0 8.0; 0.0 0.0 0.0 0.0 0.0 0.0 0.0 0.0 0.0 0.0 0.0 0.0 0.0 0.0 0.0 0.0 0.0 0.0 0.0 0.0 0.0 0.0 0.0 0.0 0.0 0.0 0.0 0.0 0.0 0.0]
Q3 = [0 1 15 15 13 28 25 52 18 10 21 16 0 19 5 20 5 4 22 17 1 0 23 2 37 2 5 20 62 25; 0 0 8 2 3 33 8 13 16 3 1 12 7 13 9 11 2 14 12 26 12 12 19 6 19 8 14 0 16 7; 0 0 0 6 6 10 26 10 5 4 2 8 32 11 22 22 26 2 18 13 10 12 12 56 6 49 14 11 19 66; 0 0 0 0 2 47 7 2 17 19 4 16 10 0 5 1 13 71 17 7 7 10 5 19 14 11 3 13 4 2; 0 0 0 0 0 18 12 33 22 1 36 14 6 72 30 30 44 13 18 0 7 2 5 29 1 22 24 5 11 7; 0 0 0 0 0 0 9 17 25 21 9 0 7 22 10 10 24 11 21 3 2 15 4 13 7 21 8 66 19 1; 0 0 0 0 0 0 0 6 15 16 18 1 4 0 62 7 13 11 16 0 33 10 11 5 5 22 17 4 9 16; 0 0 0 0 0 0 0 0 23 15 22 17 8 2 22 20 5 6 0 20 1 13 29 14 24 12 21 29 4 18; 0 0 0 0 0 0 0 0 0 15 63 2 3 19 18 24 12 11 13 0 21 0 3 19 13 22 5 17 3 8; 0 0 0 0 0 0 0 0 0 0 21 18 6 0 20 1 7 4 5 11 17 23 16 21 1 18 12 8 3 10; 0 0 0 0 0 0 0 0 0 0 0 14 8 13 13 3 2 17 17 0 1 19 2 2 4 12 5 9 23 19; 0 0 0 0 0 0 0 0 0 0 0 0 22 7 10 3 9 7 13 11 20 8 13 23 12 9 49 12 0 14; 0 0 0 0 0 0 0 0 0 0 0 0 0 6 6 4 17 22 27 5 5 7 34 6 1 21 1 4 8 16; 0 0 0 0 0 0 0 0 0 0 0 0 0 0 0 1 23 14 4 39 21 19 9 8 55 8 11 16 11 8; 0 0 0 0 0 0 0 0 0 0 0 0 0 0 0 7 8 17 47 0 45 3 3 14 22 4 19 18 13 18; 0 0 0 0 0 0 0 0 0 0 0 0 0 0 0 0 0 43 53 10 0 31 17 24 2 4 7 72 5 23; 0 0 0 0 0 0 0 0 0 0 0 0 0 0 0 0 0 5 2 12 10 11 5 59 8 10 4 23 22 2; 0 0 0 0 0 0 0 0 0 0 0 0 0 0 0 0 0 0 19 16 21 13 7 6 0 29 6 17 1 3; 0 0 0 0 0 0 0 0 0 0 0 0 0 0 0 0 0 0 0 15 2 15 5 14 10 4 14 6 11 9; 0 0 0 0 0 0 0 0 0 0 0 0 0 0 0 0 0 0 0 0 18 5 18 6 14 62 16 1 20 7; 0 0 0 0 0 0 0 0 0 0 0 0 0 0 0 0 0 0 0 0 0 2 13 13 4 45 10 5 2 27; 0 0 0 0 0 0 0 0 0 0 0 0 0 0 0 0 0 0 0 0 0 0 5 2 69 15 16 10 3 11; 0 0 0 0 0 0 0 0 0 0 0 0 0 0 0 0 0 0 0 0 0 0 0 11 11 17 0 10 18 4; 0 0 0 0 0 0 0 0 0 0 0 0 0 0 0 0 0 0 0 0 0 0 0 0 11 8 4 10 23 22; 0 0 0 0 0 0 0 0 0 0 0 0 0 0 0 0 0 0 0 0 0 0 0 0 0 20 18 8 9 10; 0 0 0 0 0 0 0 0 0 0 0 0 0 0 0 0 0 0 0 0 0 0 0 0 0 0 6 0 19 1; 0 0 0 0 0 0 0 0 0 0 0 0 0 0 0 0 0 0 0 0 0 0 0 0 0 0 0 10 14 70; 0 0 0 0 0 0 0 0 0 0 0 0 0 0 0 0 0 0 0 0 0 0 0 0 0 0 0 0 11 5; 0 0 0 0 0 0 0 0 0 0 0 0 0 0 0 0 0 0 0 0 0 0 0 0 0 0 0 0 0 2; 0 0 0 0 0 0 0 0 0 0 0 0 0 0 0 0 0 0 0 0 0 0 0 0 0 0 0 0 0 0]
